! Solving for graph ../../../benchmarks/linear/S-sherman4.mtx.rnd
! Target value is set to 256
 ! --------------------------------------------------- CP Optimizer 22.2.0.0 --
 ! Minimization problem - 547 variables, 1887 constraints, 1 phase
 ! TimeLimit            = 1800
 ! LogVerbosity         = Terse
 ! Initial process time : 0.04s (0.04s extraction + 0.00s propagation)
 !  . Log search space  : 4973.7 (before), 4973.7 (after)
 !  . Memory usage      : 929.7 kB (before), 929.7 kB (after)
 ! Using parallel search with 8 workers.
 ! ----------------------------------------------------------------------------
 !          Best Branches  Non-fixed    W       Branch decision
                        0        547                 -
 + New bound is 1
                        0        547    1            -
 + New bound is 256
                        0        547    1   F        -
 + New bound is 257
 *           257      547  0.22s        1      (gap is 0.00%)
 ! ----------------------------------------------------------------------------
 ! Search completed, 1 solution found.
 ! Best objective         : 257 (optimal - effective tol. is 0)
 ! Best bound             : 257
 ! ----------------------------------------------------------------------------
 ! Number of branches     : 6161
 ! Number of fails        : 133
 ! Total memory usage     : 43.6 MB (42.9 MB CP Optimizer + 0.8 MB Concert)
 ! Time spent in solve    : 0.22s (0.18s engine + 0.04s extraction)
 ! Search speed (br. / s) : 34227.8
 ! ----------------------------------------------------------------------------
! --------------------------------------------------------
! Best span = 257
! Labeling: 257 257 1 1 1 257 257 257 257 257 1 257 257 1 257 257 257 1 1 1 257 1 1 257 1 1 257 257 257 1 1 1 1 1 257 257 1 257 1 257 257 1 257 1 1 1 1 1 1 1 1 1 257 257 1 257 257 1 1 1 1 1 1 1 1 257 1 257 1 257 1 257 257 257 257 257 257 1 257 257 1 1 257 1 257 257 1 257 257 257 257 257 1 1 257 1 257 1 1 1 1 257 257 1 1 1 1 257 1 257 1 257 257 257 257 1 1 1 1 1 257 1 1 1 1 1 1 257 1 1 257 1 1 1 1 257 257 1 257 1 1 1 257 257 257 257 257 257 1 257 257 1 257 257 1 1 1 1 257 257 257 257 1 257 1 1 257 1 257 257 257 257 1 1 257 1 1 1 257 257 257 257 257 257 257 1 1 1 1 257 257 1 257 1 1 1 257 257 257 1 257 257 257 1 1 1 257 257 1 257 257 1 257 1 257 257 1 257 1 1 1 1 257 257 257 1 257 1 1 257 1 257 257 1 1 1 1 257 257 257 1 1 257 257 1 1 1 1 257 257 257 257 1 1 1 1 257 1 1 257 257 1 257 257 1 1 1 1 1 1 257 1 1 257 257 257 1 257 1 1 1 257 1 257 1 1 257 1 1 257 257 1 1 1 1 1 257 257 1 1 257 257 257 257 257 1 257 257 257 257 1 1 257 1 257 1 257 257 1 257 1 1 257 257 1 257 257 1 1 257 257 257 1 1 1 1 1 1 257 257 1 1 257 1 1 257 1 257 1 257 257 257 1 257 1 257 257 257 257 257 257 257 257 1 257 1 1 1 1 257 1 257 257 257 257 1 257 257 1 257 257 257 1 1 1 257 1 257 257 257 257 1 257 1 1 1 257 257 257 1 1 1 257 257 1 257 1 257 257 1 257 1 1 1 1 257 257 257 1 257 257 257 257 1 1 1 257 257 257 257 1 257 257 1 1 1 1 257 1 1 257 257 1 257 257 257 1 257 257 1 257 1 1 1 1 257 257 257 257 257 1 1 257 257 1 257 1 1 1 1 257 1 1 257 257 1 257 1 257 1 1 257 257 1 257 257 257 257 1 257 257 257 257 1 257 1 257 1 257 257 1 257 1 1 1 1 1 1 257 1 1 1 1 1 1 1 257 1 257 1 257 257 257 1 257 257 1 1 1 257 1 257 257 1 1 257 257 257 1 257 257 257 257 257 1 1 
! -------------------------------------------------------- 
